c
c LOANDRA:	 an extension of Open-WBO to core-boosted linear search.
c Version:	 July 2019 2018 -- Release: 1.0
c Authors:	 Jeremias Berg, Emir Demirovic, Peter Stuckey
c We thank the developers of Open-WBO for their work
c
c Open-WBO:	 a Modular MaxSAT Solver -- based on Glucose4.1 (core version)
c Version:	 September 2018 -- Release: 2.1
c Authors:	 Ruben Martins, Vasco Manquinho, Ines Lynce
c Contributors:	 Miguel Neves, Saurabh Joshi, Norbert Manthey, Mikolas Janota
c Contact:	 open-wbo@sat.inesc-id.pt -- http://sat.inesc-id.pt/open-wbo/
c
c WARNING: for repeatability, setting FPU to use double precision
c |                                                                                                       |
c ========================================[ Problem Statistics ]===========================================
c |                                                                                                       |
c |  Problem Format:             MaxSAT                                                                   |
c |  Problem Type:           Unweighted                                                                   |
c |  Number of variables:          2888                                                                   |
c |  Number of hard clauses:      17308                                                                   |
c |  Number of soft clauses:       2438                                                                   |
c |  Number of cardinality:           0                                                                   |
c |  Number of PB :                   0                                                                   |
c |  Parse time:                   0.01 s                                                                 |
c |                                                                                                       |
c PMRES ALGORITHM WITH LINEAR SEARCH 
c PMRES LINEAR STRAT=1
c PMRES LINEAR DIVISION=1
c PMRES CORE DIVISION=0
c PMRES CORE LIMIT (-1 = no limit)=30
c PMRES RELAX BEFORE STRAT =0
c PMRES INCREMENTAL LIN DIVISION =0
c PMRES MINIM =1
c PMRES MINIM STRAT =0
c PRE hard clauses before: 19746
c PRE soft literals before: 2438
c PRE time: 0 removed weight: 1661
c PRE hard clauses after: 14997
c PRE soft literals after: 777
c Checking model
c CG best 1954 LB: 1661 at 0
o 1954
c CG GAP: 293 T 0
c CG New weight: 1 at 0
c PMRES CORE LIMIT (-1 = no limit)=30
c Core budget remaining 30
c CG GAP: 292 T 0
c LB : 1662         CS : 1            W  : 1           
c Core budget remaining 30
c CG GAP: 291 T 0
c LB : 1663         CS : 1            W  : 1           
c Core budget remaining 30
c CG GAP: 290 T 0
c LB : 1664         CS : 1            W  : 1           
c Core budget remaining 30
c CG GAP: 289 T 0
c LB : 1665         CS : 1            W  : 1           
c Core budget remaining 30
c CG GAP: 288 T 0
c LB : 1666         CS : 1            W  : 1           
c Core budget remaining 30
c CG GAP: 287 T 0
c LB : 1667         CS : 1            W  : 1           
c Core budget remaining 30
c CG GAP: 286 T 0
c LB : 1668         CS : 1            W  : 1           
c Core budget remaining 30
c CG GAP: 285 T 0
c LB : 1669         CS : 1            W  : 1           
c Core budget remaining 30
c CG GAP: 284 T 0
c LB : 1670         CS : 1            W  : 1           
c Core budget remaining 30
c CG GAP: 283 T 0
c LB : 1671         CS : 1            W  : 1           
c Core budget remaining 30
c CG GAP: 282 T 0
c LB : 1672         CS : 1            W  : 1           
c Core budget remaining 30
c CG GAP: 281 T 0
c LB : 1673         CS : 1            W  : 1           
c Core budget remaining 30
c CG GAP: 280 T 0
c LB : 1674         CS : 1            W  : 1           
c Core budget remaining 30
c CG GAP: 279 T 0
c LB : 1675         CS : 1            W  : 1           
c Core budget remaining 30
c CG GAP: 278 T 0
c LB : 1676         CS : 1            W  : 1           
c Core budget remaining 30
c CG GAP: 277 T 0
c LB : 1677         CS : 1            W  : 1           
c Core budget remaining 30
c CG GAP: 276 T 0
c LB : 1678         CS : 1            W  : 1           
c Core budget remaining 30
c CG GAP: 275 T 0
c LB : 1679         CS : 1            W  : 1           
c Core budget remaining 30
c CG GAP: 274 T 0
c LB : 1680         CS : 1            W  : 1           
c Core budget remaining 30
c CG GAP: 273 T 0
c LB : 1681         CS : 1            W  : 1           
c Core budget remaining 30
c CG GAP: 272 T 0
c LB : 1682         CS : 1            W  : 1           
c Core budget remaining 30
c CG GAP: 271 T 0
c LB : 1683         CS : 1            W  : 1           
c Core budget remaining 30
c CG GAP: 270 T 0
c LB : 1684         CS : 1            W  : 1           
c Core budget remaining 30
c CG GAP: 269 T 0
c LB : 1685         CS : 1            W  : 1           
c Core budget remaining 30
c CG GAP: 268 T 0
c LB : 1686         CS : 1            W  : 1           
c Core budget remaining 30
c CG GAP: 267 T 0
c LB : 1687         CS : 1            W  : 1           
c Core budget remaining 30
c CG GAP: 266 T 0
c LB : 1688         CS : 1            W  : 1           
c Core budget remaining 30
c CG GAP: 265 T 0
c LB : 1689         CS : 1            W  : 1           
c Core budget remaining 30
c CG GAP: 264 T 0
c LB : 1690         CS : 1            W  : 1           
c Core budget remaining 30
c CG GAP: 263 T 0
c LB : 1691         CS : 1            W  : 1           
c Core budget remaining 30
c CG GAP: 262 T 0
c LB : 1692         CS : 1            W  : 1           
c Core budget remaining 30
c CG GAP: 261 T 0
c LB : 1693         CS : 1            W  : 1           
c Core budget remaining 30
c CG GAP: 260 T 0
c LB : 1694         CS : 1            W  : 1           
c Core budget remaining 30
c CG GAP: 259 T 0
c LB : 1695         CS : 1            W  : 1           
c Core budget remaining 30
c CG GAP: 258 T 0
c LB : 1696         CS : 1            W  : 1           
c Core budget remaining 30
c CG GAP: 257 T 0
c LB : 1697         CS : 1            W  : 1           
c Core budget remaining 30
c CG GAP: 256 T 0
c LB : 1698         CS : 1            W  : 1           
c Core budget remaining 30
c CG GAP: 255 T 0
c LB : 1699         CS : 1            W  : 1           
c Core budget remaining 30
c CG GAP: 254 T 0
c LB : 1700         CS : 1            W  : 1           
c Core budget remaining 30
c CG GAP: 253 T 0
c LB : 1701         CS : 1            W  : 1           
c Core budget remaining 30
c CG GAP: 252 T 0
c LB : 1702         CS : 1            W  : 1           
c Core budget remaining 30
c CG GAP: 251 T 0
c LB : 1703         CS : 1            W  : 1           
c Core budget remaining 30
c CG GAP: 250 T 0
c LB : 1704         CS : 1            W  : 1           
c Core budget remaining 30
c CG GAP: 249 T 0
c LB : 1705         CS : 1            W  : 1           
c Core budget remaining 30
c CG GAP: 248 T 0
c LB : 1706         CS : 1            W  : 1           
c Core budget remaining 30
c CG GAP: 247 T 0
c LB : 1707         CS : 1            W  : 1           
c Core budget remaining 30
c CG GAP: 246 T 0
c LB : 1708         CS : 1            W  : 1           
c Core budget remaining 30
c CG GAP: 245 T 0
c LB : 1709         CS : 1            W  : 1           
c Core budget remaining 30
c CG GAP: 244 T 0
c LB : 1710         CS : 1            W  : 1           
c Core budget remaining 30
c CG GAP: 243 T 0
c LB : 1711         CS : 1            W  : 1           
c Core budget remaining 30
c CG GAP: 242 T 0
c LB : 1712         CS : 1            W  : 1           
c Core budget remaining 30
c CG GAP: 241 T 0
c LB : 1713         CS : 1            W  : 1           
c Core budget remaining 30
c CG GAP: 240 T 0
c LB : 1714         CS : 1            W  : 1           
c Core budget remaining 30
c CG GAP: 239 T 0
c LB : 1715         CS : 1            W  : 1           
c Core budget remaining 30
c CG GAP: 238 T 0
c LB : 1716         CS : 1            W  : 1           
c Core budget remaining 30
c CG GAP: 237 T 0
c LB : 1717         CS : 1            W  : 1           
c Core budget remaining 30
c CG GAP: 236 T 0
c LB : 1718         CS : 1            W  : 1           
c Core budget remaining 30
c CG GAP: 235 T 0
c LB : 1719         CS : 1            W  : 1           
c Core budget remaining 30
c CG GAP: 234 T 0
c LB : 1720         CS : 1            W  : 1           
c Core budget remaining 30
c CG GAP: 233 T 0
c LB : 1721         CS : 1            W  : 1           
c Core budget remaining 30
c CG GAP: 232 T 0
c LB : 1722         CS : 1            W  : 1           
c Core budget remaining 30
c CG GAP: 231 T 0
c LB : 1723         CS : 1            W  : 1           
c Core budget remaining 30
c CG GAP: 230 T 0
c LB : 1724         CS : 1            W  : 1           
c Core budget remaining 30
c CG GAP: 229 T 0
c LB : 1725         CS : 1            W  : 1           
c Core budget remaining 30
c CG GAP: 228 T 0
c LB : 1726         CS : 1            W  : 1           
c Core budget remaining 30
c CG GAP: 227 T 0
c LB : 1727         CS : 1            W  : 1           
c Core budget remaining 30
c CG GAP: 226 T 0
c LB : 1728         CS : 1            W  : 1           
c Core budget remaining 30
c CG GAP: 225 T 0
c LB : 1729         CS : 1            W  : 1           
c Core budget remaining 30
c CG GAP: 224 T 0
c LB : 1730         CS : 1            W  : 1           
c Core budget remaining 30
c CG GAP: 223 T 0
c LB : 1731         CS : 1            W  : 1           
c Core budget remaining 30
c CG GAP: 222 T 0
c LB : 1732         CS : 1            W  : 1           
c Core budget remaining 30
c CG GAP: 221 T 0
c LB : 1733         CS : 1            W  : 1           
c Core budget remaining 30
c CG GAP: 220 T 0
c LB : 1734         CS : 1            W  : 1           
c Core budget remaining 30
c CG GAP: 219 T 0
c LB : 1735         CS : 1            W  : 1           
c Core budget remaining 30
c CG GAP: 218 T 0
c LB : 1736         CS : 1            W  : 1           
c Core budget remaining 30
c CG GAP: 217 T 0
c LB : 1737         CS : 1            W  : 1           
c Core budget remaining 30
c CG GAP: 216 T 0
c LB : 1738         CS : 1            W  : 1           
c Core budget remaining 30
c CG GAP: 215 T 0
c LB : 1739         CS : 1            W  : 1           
c Core budget remaining 30
c CG GAP: 214 T 0
c LB : 1740         CS : 1            W  : 1           
c Core budget remaining 30
c CG GAP: 213 T 0
c LB : 1741         CS : 1            W  : 1           
c Core budget remaining 30
c CG GAP: 212 T 0
c LB : 1742         CS : 1            W  : 1           
c Core budget remaining 30
c CG GAP: 211 T 0
c LB : 1743         CS : 1            W  : 1           
c Core budget remaining 30
c CG GAP: 210 T 0
c LB : 1744         CS : 1            W  : 1           
c Core budget remaining 30
c CG GAP: 209 T 0
c LB : 1745         CS : 1            W  : 1           
c Core budget remaining 30
c CG GAP: 208 T 0
c LB : 1746         CS : 1            W  : 1           
c Core budget remaining 30
c CG GAP: 207 T 0
c LB : 1747         CS : 1            W  : 1           
c Core budget remaining 30
c CG GAP: 206 T 0
c LB : 1748         CS : 1            W  : 1           
c Core budget remaining 30
c CG GAP: 205 T 0
c LB : 1749         CS : 1            W  : 1           
c Core budget remaining 30
c CG GAP: 204 T 0
c LB : 1750         CS : 1            W  : 1           
c Core budget remaining 30
c CG GAP: 203 T 0
c LB : 1751         CS : 1            W  : 1           
c Core budget remaining 30
c CG GAP: 202 T 0
c LB : 1752         CS : 1            W  : 1           
c Core budget remaining 30
c CG GAP: 201 T 0
c LB : 1753         CS : 1            W  : 1           
c Core budget remaining 30
c CG GAP: 200 T 0
c LB : 1754         CS : 1            W  : 1           
c Core budget remaining 30
c CG GAP: 199 T 0
c LB : 1755         CS : 1            W  : 1           
c Core budget remaining 30
c CG GAP: 198 T 0
c LB : 1756         CS : 1            W  : 1           
c Core budget remaining 30
c CG GAP: 197 T 0
c LB : 1757         CS : 1            W  : 1           
c Core budget remaining 30
c CG GAP: 196 T 0
c LB : 1758         CS : 1            W  : 1           
c Core budget remaining 30
c CG GAP: 195 T 0
c LB : 1759         CS : 1            W  : 1           
c Core budget remaining 30
c CG GAP: 194 T 0
c LB : 1760         CS : 1            W  : 1           
c Core budget remaining 30
c CG GAP: 193 T 0
c LB : 1761         CS : 1            W  : 1           
c Core budget remaining 30
c CG GAP: 192 T 0
c LB : 1762         CS : 1            W  : 1           
c Core budget remaining 30
c CG GAP: 191 T 0
c LB : 1763         CS : 1            W  : 1           
c Core budget remaining 30
c CG GAP: 190 T 0
c LB : 1764         CS : 1            W  : 1           
c Core budget remaining 30
c CG GAP: 189 T 0
c LB : 1765         CS : 1            W  : 1           
c Core budget remaining 30
c CG GAP: 188 T 0
c LB : 1766         CS : 1            W  : 1           
c Core budget remaining 30
c CG GAP: 187 T 0
c LB : 1767         CS : 1            W  : 1           
c Core budget remaining 30
c CG GAP: 186 T 0
c LB : 1768         CS : 1            W  : 1           
c Core budget remaining 30
c CG GAP: 185 T 0
c LB : 1769         CS : 1            W  : 1           
c Core budget remaining 30
c CG GAP: 184 T 0
c LB : 1770         CS : 1            W  : 1           
c Core budget remaining 30
c CG GAP: 183 T 0
c LB : 1771         CS : 1            W  : 1           
c Core budget remaining 30
c CG GAP: 182 T 0
c LB : 1772         CS : 1            W  : 1           
c Core budget remaining 30
c CG GAP: 181 T 0
c LB : 1773         CS : 1            W  : 1           
c Core budget remaining 30
c CG GAP: 180 T 0
c LB : 1774         CS : 1            W  : 1           
c Core budget remaining 30
c CG GAP: 179 T 0
c LB : 1775         CS : 1            W  : 1           
c Core budget remaining 30
c CG GAP: 178 T 0
c LB : 1776         CS : 1            W  : 1           
c Core budget remaining 30
c CG GAP: 177 T 0
c LB : 1777         CS : 1            W  : 1           
c Core budget remaining 30
c CG GAP: 176 T 0
c LB : 1778         CS : 1            W  : 1           
c Core budget remaining 30
c CG GAP: 175 T 0
c LB : 1779         CS : 1            W  : 1           
c Core budget remaining 30
c CG GAP: 174 T 0
c LB : 1780         CS : 1            W  : 1           
c Core budget remaining 30
c CG GAP: 173 T 0
c LB : 1781         CS : 1            W  : 1           
c Core budget remaining 30
c CG GAP: 172 T 0
c LB : 1782         CS : 1            W  : 1           
c Core budget remaining 30
c CG GAP: 171 T 0
c LB : 1783         CS : 1            W  : 1           
c Core budget remaining 30
c CG GAP: 170 T 0
c LB : 1784         CS : 1            W  : 1           
c Core budget remaining 30
c CG GAP: 169 T 0
c LB : 1785         CS : 1            W  : 1           
c Core budget remaining 30
c CG GAP: 168 T 0
c LB : 1786         CS : 1            W  : 1           
c Core budget remaining 30
c CG GAP: 167 T 0
c LB : 1787         CS : 1            W  : 1           
c Core budget remaining 30
c CG GAP: 166 T 0
c LB : 1788         CS : 1            W  : 1           
c Core budget remaining 30
c CG GAP: 165 T 0
c LB : 1789         CS : 1            W  : 1           
c Core budget remaining 30
c CG GAP: 164 T 0
c LB : 1790         CS : 1            W  : 1           
c Core budget remaining 30
c CG GAP: 163 T 0
c LB : 1791         CS : 1            W  : 1           
c Core budget remaining 30
c CG GAP: 162 T 0
c LB : 1792         CS : 1            W  : 1           
c Core budget remaining 30
c CG GAP: 161 T 0
c LB : 1793         CS : 1            W  : 1           
c Core budget remaining 30
c CG GAP: 160 T 0
c LB : 1794         CS : 1            W  : 1           
c Core budget remaining 30
c CG GAP: 159 T 0
c LB : 1795         CS : 1            W  : 1           
c Core budget remaining 30
c CG GAP: 158 T 0
c LB : 1796         CS : 1            W  : 1           
c Core budget remaining 30
c CG GAP: 157 T 0
c LB : 1797         CS : 1            W  : 1           
c Core budget remaining 30
c CG GAP: 156 T 0
c LB : 1798         CS : 1            W  : 1           
c Core budget remaining 30
c CG GAP: 155 T 0
c LB : 1799         CS : 1            W  : 1           
c Core budget remaining 30
c CG GAP: 154 T 0
c LB : 1800         CS : 1            W  : 1           
c Core budget remaining 30
c CG GAP: 153 T 0
c LB : 1801         CS : 1            W  : 1           
c Core budget remaining 30
c CG GAP: 152 T 0
c LB : 1802         CS : 1            W  : 1           
c Core budget remaining 30
c CG GAP: 151 T 0
c LB : 1803         CS : 1            W  : 1           
c Core budget remaining 30
c CG GAP: 150 T 0
c LB : 1804         CS : 1            W  : 1           
c Core budget remaining 30
c CG GAP: 149 T 0
c LB : 1805         CS : 1            W  : 1           
c Core budget remaining 30
c CG GAP: 148 T 0
c LB : 1806         CS : 1            W  : 1           
c Core budget remaining 30
c CG GAP: 147 T 0
c LB : 1807         CS : 1            W  : 1           
c Core budget remaining 30
c CG GAP: 146 T 0
c LB : 1808         CS : 1            W  : 1           
c Core budget remaining 30
c CG GAP: 145 T 0
c LB : 1809         CS : 1            W  : 1           
c Core budget remaining 30
c CG GAP: 144 T 0
c LB : 1810         CS : 1            W  : 1           
c Core budget remaining 30
c CG GAP: 143 T 0
c LB : 1811         CS : 1            W  : 1           
c Core budget remaining 30
c CG GAP: 142 T 0
c LB : 1812         CS : 1            W  : 1           
c Core budget remaining 30
c CG GAP: 141 T 0
c LB : 1813         CS : 1            W  : 1           
c Core budget remaining 30
c CG GAP: 140 T 0
c LB : 1814         CS : 1            W  : 1           
c Core budget remaining 30
c CG GAP: 139 T 0
c LB : 1815         CS : 1            W  : 1           
c Core budget remaining 30
c CG GAP: 138 T 0
c LB : 1816         CS : 1            W  : 1           
c Core budget remaining 30
c CG GAP: 137 T 0
c LB : 1817         CS : 1            W  : 1           
c Core budget remaining 30
c CG GAP: 136 T 0
c LB : 1818         CS : 1            W  : 1           
c Core budget remaining 30
c CG GAP: 135 T 0
c LB : 1819         CS : 1            W  : 1           
c Core budget remaining 30
c CG GAP: 134 T 0
c LB : 1820         CS : 1            W  : 1           
c Core budget remaining 30
c CG GAP: 133 T 0
c LB : 1821         CS : 1            W  : 1           
c Core budget remaining 30
c CG GAP: 132 T 0
c LB : 1822         CS : 1            W  : 1           
c Core budget remaining 30
c CG GAP: 131 T 0
c LB : 1823         CS : 1            W  : 1           
c Core budget remaining 30
c CG GAP: 130 T 0
c LB : 1824         CS : 1            W  : 1           
c Core budget remaining 30
c CG GAP: 129 T 0
c LB : 1825         CS : 1            W  : 1           
c Core budget remaining 30
c CG GAP: 128 T 0
c LB : 1826         CS : 1            W  : 1           
c Core budget remaining 30
c CG GAP: 127 T 0
c LB : 1827         CS : 1            W  : 1           
c Core budget remaining 30
c CG GAP: 126 T 0
c LB : 1828         CS : 1            W  : 1           
c Core budget remaining 30
c CG GAP: 125 T 0
c LB : 1829         CS : 1            W  : 1           
c Core budget remaining 30
c CG GAP: 124 T 0
c LB : 1830         CS : 1            W  : 1           
c Core budget remaining 30
c CG GAP: 123 T 0
c LB : 1831         CS : 1            W  : 1           
c Core budget remaining 30
c CG GAP: 122 T 0
c LB : 1832         CS : 1            W  : 1           
c Core budget remaining 30
c CG GAP: 121 T 0
c LB : 1833         CS : 1            W  : 1           
c Core budget remaining 30
c CG GAP: 120 T 0
c LB : 1834         CS : 1            W  : 1           
c Core budget remaining 30
c CG GAP: 119 T 0
c LB : 1835         CS : 1            W  : 1           
c Core budget remaining 30
c CG GAP: 118 T 0
c LB : 1836         CS : 1            W  : 1           
c Core budget remaining 30
c CG GAP: 117 T 0
c LB : 1837         CS : 1            W  : 1           
c Core budget remaining 30
c CG GAP: 116 T 0
c LB : 1838         CS : 1            W  : 1           
c Core budget remaining 30
c CG GAP: 115 T 0
c LB : 1839         CS : 1            W  : 1           
c Core budget remaining 30
c CG GAP: 114 T 0
c LB : 1840         CS : 1            W  : 1           
c Core budget remaining 30
c CG GAP: 113 T 0
c LB : 1841         CS : 1            W  : 1           
c Core budget remaining 30
c CG GAP: 112 T 0
c LB : 1842         CS : 1            W  : 1           
c Core budget remaining 30
c CG GAP: 111 T 0
c LB : 1843         CS : 1            W  : 1           
c Core budget remaining 30
c CG GAP: 110 T 0
c LB : 1844         CS : 1            W  : 1           
c Core budget remaining 30
c CG GAP: 109 T 0
c LB : 1845         CS : 1            W  : 1           
c Core budget remaining 30
c CG GAP: 108 T 0
c LB : 1846         CS : 1            W  : 1           
c Core budget remaining 30
c CG GAP: 107 T 0
c LB : 1847         CS : 1            W  : 1           
c Core budget remaining 30
c CG GAP: 106 T 0
c LB : 1848         CS : 1            W  : 1           
c Core budget remaining 30
c CG GAP: 105 T 0
c LB : 1849         CS : 1            W  : 1           
c Core budget remaining 30
c CG GAP: 104 T 0
c LB : 1850         CS : 1            W  : 1           
c Core budget remaining 30
c CG GAP: 103 T 0
c LB : 1851         CS : 1            W  : 1           
c Core budget remaining 30
c CG GAP: 102 T 0
c LB : 1852         CS : 1            W  : 1           
c Core budget remaining 30
c CG GAP: 101 T 0
c LB : 1853         CS : 1            W  : 1           
c Core budget remaining 30
c CG GAP: 100 T 0
c LB : 1854         CS : 1            W  : 1           
c Core budget remaining 30
c CG GAP: 99 T 0
c LB : 1855         CS : 1            W  : 1           
c Core budget remaining 30
c CG GAP: 98 T 0
c LB : 1856         CS : 1            W  : 1           
c Core budget remaining 30
c CG GAP: 97 T 0
c LB : 1857         CS : 1            W  : 1           
c Core budget remaining 30
c CG GAP: 96 T 0
c LB : 1858         CS : 1            W  : 1           
c Core budget remaining 30
c CG GAP: 95 T 0
c LB : 1859         CS : 1            W  : 1           
c Core budget remaining 30
c CG GAP: 94 T 0
c LB : 1860         CS : 1            W  : 1           
c Core budget remaining 30
c CG GAP: 93 T 0
c LB : 1861         CS : 1            W  : 1           
c Core budget remaining 30
c CG GAP: 92 T 0
c LB : 1862         CS : 1            W  : 1           
c Core budget remaining 30
c CG GAP: 91 T 0
c LB : 1863         CS : 1            W  : 1           
c Core budget remaining 30
c CG GAP: 90 T 0
c LB : 1864         CS : 1            W  : 1           
c Core budget remaining 30
c CG GAP: 89 T 0
c LB : 1865         CS : 1            W  : 1           
c Core budget remaining 30
c CG GAP: 88 T 0
c LB : 1866         CS : 1            W  : 1           
c Core budget remaining 30
c CG GAP: 87 T 0
c LB : 1867         CS : 1            W  : 1           
c Core budget remaining 30
c CG GAP: 86 T 0
c LB : 1868         CS : 1            W  : 1           
c Core budget remaining 30
c CG GAP: 85 T 0
c LB : 1869         CS : 1            W  : 1           
c Core budget remaining 30
c CG GAP: 84 T 0
c LB : 1870         CS : 1            W  : 1           
c Core budget remaining 30
c CG GAP: 83 T 0
c LB : 1871         CS : 1            W  : 1           
c Core budget remaining 30
c CG GAP: 82 T 0
c LB : 1872         CS : 1            W  : 1           
c Core budget remaining 30
c CG GAP: 81 T 0
c LB : 1873         CS : 1            W  : 1           
c Core budget remaining 30
c CG GAP: 80 T 0
c LB : 1874         CS : 1            W  : 1           
c Core budget remaining 30
c CG GAP: 79 T 0
c LB : 1875         CS : 1            W  : 1           
c Core budget remaining 30
c CG GAP: 78 T 0
c LB : 1876         CS : 1            W  : 1           
c Core budget remaining 30
c CG GAP: 77 T 0
c LB : 1877         CS : 1            W  : 1           
c Core budget remaining 30
c CG GAP: 76 T 0
c LB : 1878         CS : 1            W  : 1           
c Core budget remaining 30
c CG GAP: 75 T 0
c LB : 1879         CS : 1            W  : 1           
c Core budget remaining 30
c CG GAP: 74 T 0
c LB : 1880         CS : 1            W  : 1           
c Core budget remaining 30
c CG GAP: 73 T 0
c LB : 1881         CS : 1            W  : 1           
c Core budget remaining 30
c CG GAP: 72 T 0
c LB : 1882         CS : 1            W  : 1           
c Core budget remaining 30
c CG GAP: 71 T 0
c LB : 1883         CS : 1            W  : 1           
c Core budget remaining 30
c CG GAP: 70 T 0
c LB : 1884         CS : 1            W  : 1           
c Core budget remaining 30
c CG GAP: 69 T 0
c LB : 1885         CS : 1            W  : 1           
c Core budget remaining 30
c CG GAP: 68 T 0
c LB : 1886         CS : 1            W  : 1           
c Core budget remaining 30
c CG GAP: 67 T 0
c LB : 1887         CS : 1            W  : 1           
c Core budget remaining 30
c CG GAP: 66 T 0
c LB : 1888         CS : 1            W  : 1           
c Core budget remaining 30
c CG GAP: 65 T 0
c LB : 1889         CS : 1            W  : 1           
c Core budget remaining 30
c CG GAP: 64 T 0
c LB : 1890         CS : 1            W  : 1           
c Core budget remaining 30
c CG GAP: 63 T 0
c LB : 1891         CS : 1            W  : 1           
c Core budget remaining 30
c CG GAP: 62 T 0
c LB : 1892         CS : 1            W  : 1           
c Core budget remaining 30
c CG GAP: 61 T 0
c LB : 1893         CS : 1            W  : 1           
c Core budget remaining 30
c CG GAP: 60 T 0
c LB : 1894         CS : 1            W  : 1           
c Core budget remaining 30
c CG GAP: 59 T 0
c LB : 1895         CS : 1            W  : 1           
c Core budget remaining 30
c CG GAP: 58 T 0
c LB : 1896         CS : 1            W  : 1           
c Core budget remaining 30
c CG GAP: 57 T 0
c LB : 1897         CS : 1            W  : 1           
c Core budget remaining 30
c CG GAP: 56 T 0
c LB : 1898         CS : 1            W  : 1           
c Core budget remaining 30
c CG GAP: 55 T 0
c LB : 1899         CS : 1            W  : 1           
c Core budget remaining 30
c CG GAP: 54 T 0
c LB : 1900         CS : 1            W  : 1           
c Core budget remaining 30
c CG GAP: 53 T 0
c LB : 1901         CS : 1            W  : 1           
c Core budget remaining 30
c CG GAP: 52 T 0
c LB : 1902         CS : 1            W  : 1           
c Core budget remaining 30
c CG GAP: 51 T 0
c LB : 1903         CS : 1            W  : 1           
c Core budget remaining 30
c CG GAP: 50 T 0
c LB : 1904         CS : 1            W  : 1           
c Core budget remaining 30
c CG GAP: 49 T 0
c LB : 1905         CS : 1            W  : 1           
c Core budget remaining 30
c CG GAP: 48 T 0
c LB : 1906         CS : 1            W  : 1           
c Core budget remaining 30
c CG GAP: 47 T 0
c LB : 1907         CS : 1            W  : 1           
c Core budget remaining 30
c CG GAP: 46 T 0
c LB : 1908         CS : 10           W  : 1           
c Core budget remaining 30
c CG GAP: 45 T 0
c LB : 1909         CS : 14           W  : 1           
c Core budget remaining 30
c CG GAP: 44 T 0
c LB : 1910         CS : 10           W  : 1           
c Core budget remaining 30
c CG GAP: 43 T 0
c LB : 1911         CS : 9            W  : 1           
c Core budget remaining 30
c CG GAP: 42 T 0
c LB : 1912         CS : 7            W  : 1           
c Core budget remaining 30
c CG GAP: 41 T 0
c LB : 1913         CS : 5            W  : 1           
c Core budget remaining 30
c CG GAP: 40 T 0
c LB : 1914         CS : 5            W  : 1           
c Core budget remaining 30
c CG GAP: 39 T 0
c LB : 1915         CS : 5            W  : 1           
c Core budget remaining 30
c CG GAP: 38 T 0
c LB : 1916         CS : 5            W  : 1           
c Core budget remaining 30
c CG GAP: 37 T 0
c LB : 1917         CS : 4            W  : 1           
c Core budget remaining 30
c CG GAP: 36 T 0
c LB : 1918         CS : 4            W  : 1           
c Core budget remaining 30
c CG GAP: 35 T 0
c LB : 1919         CS : 4            W  : 1           
c Core budget remaining 30
c CG GAP: 34 T 0
c LB : 1920         CS : 4            W  : 1           
c Core budget remaining 30
c CG GAP: 33 T 0
c LB : 1921         CS : 4            W  : 1           
c Core budget remaining 30
c CG GAP: 32 T 0
c LB : 1922         CS : 4            W  : 1           
c Core budget remaining 30
c CG GAP: 31 T 0
c LB : 1923         CS : 4            W  : 1           
c Core budget remaining 30
c CG GAP: 30 T 0
c LB : 1924         CS : 4            W  : 1           
c Core budget remaining 30
c CG GAP: 29 T 0
c LB : 1925         CS : 4            W  : 1           
c Core budget remaining 30
c CG GAP: 28 T 0
c LB : 1926         CS : 7            W  : 1           
c Core budget remaining 30
c CG GAP: 27 T 0
c LB : 1927         CS : 12           W  : 1           
c Core budget remaining 30
c CG GAP: 26 T 0
c LB : 1928         CS : 12           W  : 1           
c Core budget remaining 30
c CG GAP: 25 T 0
c LB : 1929         CS : 10           W  : 1           
c Core budget remaining 30
c SAT-During core guided phase at 0
c Checking model
c Hardening with gap: 25
c Hardened in total: 0 clauses
c Hardening again at gap 1
c Strat 2 Relax
c Updating solver at 0
c Starting lin search with: LB: 1929 UB: 1954 UB - LB: 25 Time 0
c Deleting solver
c CG New factor 1
c Extending best model to full formula
c Checking model
c Reduced cost 25 gap 25
c Building new PB
c Considering 509 of 509 soft clauses
c Minimizing in init
c Minimization time 0 init minsize 25 skipped 0
c Reduced cost 25 gap 25
c Encoding PB with UB: 25 obj size 509
c Encoding Done
c Setting Card Vars currently: 6752 / orig 3663
c Checking model
c Found same cost model covering more variables
c CardVars DONE  
c SAT Call at 0
c Reduced cost 25 gap 25
c Checking model
c BOUND UPDATE RHS: 24 at 0
c SAT Call at 0
c Reduced cost 24 gap 25
c Checking model
c LIN best 1953 LB: 1929 at 0
o 1953
c LIN GAP: 24 T 0
c BOUND UPDATE RHS: 23 at 0
c SAT Call at 0
c Reduced cost 23 gap 24
c Checking model
c LIN best 1952 LB: 1929 at 0
o 1952
c LIN GAP: 23 T 0
c BOUND UPDATE RHS: 22 at 0
c SAT Call at 0
c Reduced cost 22 gap 23
c Checking model
c LIN best 1951 LB: 1929 at 0
o 1951
c LIN GAP: 22 T 0
c BOUND UPDATE RHS: 21 at 0
c SAT Call at 0
c Reduced cost 21 gap 22
c Checking model
c LIN best 1950 LB: 1929 at 0
o 1950
c LIN GAP: 21 T 0
c BOUND UPDATE RHS: 20 at 0
c SAT Call at 0
c Reduced cost 20 gap 21
c Checking model
c LIN best 1949 LB: 1929 at 0
o 1949
c LIN GAP: 20 T 0
c BOUND UPDATE RHS: 19 at 0
c SAT Call at 0
c Reduced cost 19 gap 20
c Checking model
c LIN best 1948 LB: 1929 at 0
o 1948
c LIN GAP: 19 T 0
c BOUND UPDATE RHS: 18 at 0
c SAT Call at 0
c Reduced cost 18 gap 19
c Checking model
c LIN best 1947 LB: 1929 at 0
o 1947
c LIN GAP: 18 T 0
c BOUND UPDATE RHS: 17 at 0
c SAT Call at 0
c Reduced cost 17 gap 18
c Checking model
c LIN best 1946 LB: 1929 at 0
o 1946
c LIN GAP: 17 T 0
c BOUND UPDATE RHS: 16 at 0
c SAT Call at 0
c Reduced cost 16 gap 17
c Checking model
c LIN best 1945 LB: 1929 at 0
o 1945
c LIN GAP: 16 T 0
c BOUND UPDATE RHS: 15 at 0
c SAT Call at 0
c Reduced cost 15 gap 16
c Checking model
c LIN best 1944 LB: 1929 at 0
o 1944
c LIN GAP: 15 T 0
c BOUND UPDATE RHS: 14 at 0
c SAT Call at 0
c Reduced cost 14 gap 15
c Checking model
c LIN best 1943 LB: 1929 at 0
o 1943
c LIN GAP: 14 T 0
c BOUND UPDATE RHS: 13 at 0
c SAT Call at 0
c Reduced cost 13 gap 14
c Checking model
c LIN best 1942 LB: 1929 at 0
o 1942
c LIN GAP: 13 T 0
c BOUND UPDATE RHS: 12 at 0
c SAT Call at 0
c Reduced cost 12 gap 13
c Checking model
c LIN best 1941 LB: 1929 at 0
o 1941
c LIN GAP: 12 T 0
c BOUND UPDATE RHS: 11 at 0
c SAT Call at 0
c Reduced cost 11 gap 12
c Checking model
c LIN best 1940 LB: 1929 at 0
o 1940
c LIN GAP: 11 T 0
c BOUND UPDATE RHS: 10 at 0
c SAT Call at 0
c Reduced cost 10 gap 11
c Checking model
c LIN best 1939 LB: 1929 at 0
o 1939
c LIN GAP: 10 T 0
c BOUND UPDATE RHS: 9 at 0
c SAT Call at 0
c Reduced cost 9 gap 10
c Checking model
c LIN best 1938 LB: 1929 at 0
o 1938
c LIN GAP: 9 T 0
c BOUND UPDATE RHS: 8 at 0
c SAT Call at 0
c Reconstructing in print answer
c Reconstruction time: 0
c new cost: 1938
s OPTIMUM FOUND
v 00100100100100100100100100100100100100100100100100100100100100100100100100100100100100100100100100100100100100100100100100100100100100100100100100100110110110110110110110110110100110110110110110110110110110110111110110110110110110110110110110110110110110110110110110110110110110110110110110110110110111111111111111111110111111111111111111111111111111111111110111111111111111111111111111110111111111110110111111111111111111111111111111111111111111111111111111111111111111111111111111111111111111111111111111111111111111111111111111111111111111111111111111111111111111111111111111111111111111111111111111111111111111111111111111111111111111111111111111111111111111111111111111111111111111111111111111111111111111111111111111111111111111111111111111111111111111111111111111111111111111111111111111111111111111111111111111111111111111111111111111111111111111111111111111111111111111111111111111111111111111111111111111111111111111111111111111111111111111111111111111111111111111111111111111111111111111111111111111111111111111111111111111111111111111111111111111111111111111111111111111111111111111111111111111111111111111111111111111111111111111111111111111111111111111111111111111111111111111111111111111111000000000000000000000000000000000000000000000000000000000000000000000000000000000000000000000000000000000000000000000000000000000000000000000000000000000000000000000000000000000000000000000000000000000000000000000000000000000000000000000000000000000000000000000000000000000000000000000000000000000000000000000000000000000000000000000000000000000000000000000000000000000000000000000000000000000000000000000000000000000000000000000000000000000000000000000000000000001111111111111111111111111111111111110000000000000000000000000000000000000000000000000000000000000000000000000000000000000000000000000000000000000000000000000000000000000000000000000000000000000000000000000000000000000000000000000000000000000000000000000000000000000000000000000000000000000000000000000000000000000000000000000000000000000000000000000000000000000000000000000000000000000000000000000000000000000000000000000000000000000000000000000000000000000000000000000000000000000000000000000000000000000000000000000000000000000000000000000000000000000000000000000000000000000000000000000000000000000000000000000000000000000000000000000000000000000000000000000000000000000000000000000000000000000000000000000000000000000000000000000000000000000000000000000000000000000000000000000000000000000000000000000000000000000000000000000000000000000000000000000000000000000000000000000000000000000000000000000000000000000000000000000000000000000000000000000000000000000000000000000000000000000000000000000000000000000000000000000000000000000000000000000000000000000000000000000000000000000000000000000000000000000000000000000000000000000000000000000000000000000000000000000000000000000000000000000000000000000000000000000000000
